300
300
209
209
208
208
207
207
207
207
206
206
206
202
201
201
200
200
200
200
199
198
196
196
195
195
194
193
193
193
192
192
189
189
188
188
185
185
184
183
182
182
182
182
182
181
181
179
178
176
175
175
174
174
173
173
172
172
171
171
170
170
170
170
169
169
167
167
165
164
164
164
163
163
163
162
161
161
160
160
159
159
158
158
158
158
158
158
155
155
154
153
153
153
152
151
151
151
150
149
149
148
147
146
145
144
143
142
142
142
142
140
140
139
137
137
137
136
136
136
136
135
134
134
134
133
133
133
133
132
132
131
131
130
130
129
129
129
129
128
127
127
125
124
124
124
123
122
122
122
121
119
119
119
119
119
119
118
117
117
116
116
115
115
115
114
113
113
112
110
110
109
109
109
109
109
109
108
108
108
106
106
106
104
104
103
102
102
102
102
102
101
101
100
99
98
97
95
95
94
94
93
92
92
90
90
90
90
88
88
88
88
87
86
86
86
85
85
83
83
83
82
82
81
81
79
79
79
78
78
77
77
76
74
72
71
70
70
68
68
67
66
65
65
64
64
64
62
62
62
62
61
61
60
59
59
57
57
56
55
55
55
55
54
53
52
51
49
48
48
47
47
47
47
47
47
46
45
44
44
43
42
42
42
42
40
40
39
38
37
37
36
36
36
35
35
34
34
34
32
32
31
